! Edited 18:37   5/12/2018
&CONTROL 
calculation = "scf", 
disk_io = 'low', 
etot_conv_thr = 1.0E-4, 
forc_conv_thr = 1.0D-3, 
nstep = 40, 
outdir = "/opt/scratch", 
prefix = "fe_fcc_1_afm", 
pseudo_dir = "/opt/pp", 
restart_mode = 'from_scratch', 
tprnfor = .true., 
tstress = .true., 
/ 
&SYSTEM 
celldm(1) = 7.5, 
ecutrho = 200, 
ecutwfc = 35, 
ibrav = 0, 
nat = 4, 
ntyp = 4, 
nspin = 2,
starting_magnetization(1) = 0.1,
starting_magnetization(2) = -0.1,
starting_magnetization(3) = 0.1,
starting_magnetization(4) = -0.1,
occupations = 'smearing',
smearing = 'mv',
degauss = 0.05,
/ 
&ELECTRONS 
conv_thr = 1.0D-6, 
diagonalization = 'david', 
mixing_beta = 1.0000000E-01, 
mixing_mode = 'plain', 
mixing_ndim = 10, 
/ 
&IONS 
ion_dynamics = 'bfgs', 
/ 
&CELL 
cell_dynamics = 'bfgs', 
cell_factor = 2.0, 
press = 0.0, 
/ 
ATOMIC_SPECIES 
Fe1   55.845   Fe.pbe-spn-kjpaw_psl.1.0.0.UPF
Fe2   55.845   Fe.pbe-spn-kjpaw_psl.1.0.0.UPF
Fe3   55.845   Fe.pbe-spn-kjpaw_psl.1.0.0.UPF
Fe4   55.845   Fe.pbe-spn-kjpaw_psl.1.0.0.UPF
ATOMIC_POSITIONS crystal
Fe1   0.0   0.0   0.0   
Fe2   0.5   0.5   0.0   
Fe3   0.5   0.5   0.0   
Fe4   0.5   0.5   0.0   
K_POINTS automatic
5 5 5   1 1 1 
CELL_PARAMETERS alat
1.0 0.0 0.0 
0.0 1.051631482 0.0 
0.0 0.0 1.0
