! Edited 21:59   14/11/2020
&CONTROL 
calculation = "scf", 
disk_io = 'low', 
etot_conv_thr = 1.0E-4, 
forc_conv_thr = 1.0D-3, 
nstep = 40, 
outdir = "/opt/scratch", 
prefix = "NtEAamDmyaehIwdt", 
pseudo_dir = "/opt/pp", 
restart_mode = 'from_scratch', 
tprnfor = .true., 
tstress = .true., 
/ 
&SYSTEM 
celldm(1) = 14.8394198232, 
degauss = 0.04, 
ecutrho = 430, 
ecutwfc = 71, 
ibrav = 0, 
nat = 32, 
ntyp = 1, 
occupations = 'smearing', 
smearing = 'mv', 
/ 
&ELECTRONS 
conv_thr = 1.0D-6, 
diagonalization = 'david', 
mixing_beta = 1.0000000E-01, 
mixing_mode = 'plain', 
mixing_ndim = 10, 
/ 
&IONS 
ion_dynamics = 'bfgs', 
/ 
&CELL 
cell_dynamics = 'bfgs', 
cell_factor = 2.0, 
press = 0.0, 
/ 
ATOMIC_SPECIES 
Pd 106.42 Pd.pbe-spn-kjpaw_psl.1.0.0.UPF 
ATOMIC_POSITIONS crystal
Pd   0.0   0.0   0.0   
Pd   0.250004458995   0.250004458995   0.0   
Pd   0.250004458995   0.0   0.250003963551   
Pd   0.0   0.250004458995   0.250003963551   
Pd   0.0   0.0   0.499999009112   
Pd   0.250011593387   0.250011593387   0.499999009112   
Pd   0.250004458995   0.0   0.749995045561   
Pd   0.0   0.250004458995   0.749995045561   
Pd   0.0   0.499999801822   0.0   
Pd   0.250004458995   0.749995243739   0.0   
Pd   0.250011593387   0.499999801822   0.250010899766   
Pd   0.0   0.749995243739   0.250003963551   
Pd   0.0   0.499999801822   0.499999009112   
Pd   0.250011593387   0.749988109346   0.499999009112   
Pd   0.250011593387   0.499999801822   0.749988109346   
Pd   0.0   0.749995243739   0.749995045561   
Pd   0.499999801822   0.0   0.0   
Pd   0.749995243739   0.250004458995   0.0   
Pd   0.749995243739   0.0   0.250003963551   
Pd   0.499999801822   0.250011593387   0.250010899766   
Pd   0.499999801822   0.0   0.499999009112   
Pd   0.749988109346   0.250011593387   0.499999009112   
Pd   0.749995243739   0.0   0.749995045561   
Pd   0.499999801822   0.250011593387   0.749988109346   
Pd   0.499999801822   0.499999801822   0.0   
Pd   0.749995243739   0.749995243739   0.0   
Pd   0.749988109346   0.499999801822   0.250010899766   
Pd   0.499999801822   0.749988109346   0.250010899766   
Pd   0.499999801822   0.499999801822   0.499999009112   
Pd   0.749988109346   0.749988109346   0.499999009112   
Pd   0.749988109346   0.499999801822   0.749988109346   
Pd   0.499999801822   0.749988109346   0.749988109346   
K_POINTS automatic
9 9 9 1 1 1  
CELL_PARAMETERS alat
1.0 0.0 0.0 
0.0 1.00333333333 0.0 
0.0 0.0 1.0