! Edited 21:59   14/11/2020
&CONTROL 
calculation = "vc-relax", 
disk_io = 'low', 
etot_conv_thr = 1.0E-4, 
forc_conv_thr = 1.0D-3, 
nstep = 40, 
outdir = "/opt/scratch", 
prefix = "RFzKjLqqIdHTAgGL", 
pseudo_dir = "/opt/pp", 
restart_mode = 'from_scratch', 
tprnfor = .true., 
tstress = .true., 
/ 
&SYSTEM 
celldm(1) = 14.7042, 
degauss = 0.04, 
ecutrho = 430, 
ecutwfc = 71, 
ibrav = 0, 
nat = 32, 
ntyp = 1, 
occupations = 'smearing', 
smearing = 'mv', 
/ 
&ELECTRONS 
conv_thr = 1.0D-6, 
diagonalization = 'david', 
mixing_beta = 1.0000000E-01, 
mixing_mode = 'plain', 
mixing_ndim = 10, 
/ 
&IONS 
ion_dynamics = 'bfgs', 
/ 
&CELL 
cell_dynamics = 'bfgs', 
cell_factor = 2.0, 
press = 0.0, 
/ 
ATOMIC_SPECIES 
Pd 106.42 Pd.pbe-spn-kjpaw_psl.1.0.0.UPF 
ATOMIC_POSITIONS crystal
Pd   0.0   0.0   0.0   
Pd   0.25   0.25   0.0   
Pd   0.25   0.0   0.25   
Pd   0.0   0.25   0.25   
Pd   0.0   0.0   0.5   
Pd   0.25   0.25   0.5   
Pd   0.25   0.0   0.75   
Pd   0.0   0.25   0.75   
Pd   0.0   0.5   0.0   
Pd   0.25   0.75   0.0   
Pd   0.25   0.5   0.25   
Pd   0.0   0.75   0.25   
Pd   0.0   0.5   0.5   
Pd   0.25   0.75   0.5   
Pd   0.25   0.5   0.75   
Pd   0.0   0.75   0.75   
Pd   0.5   0.0   0.0   
Pd   0.75   0.25   0.0   
Pd   0.75   0.0   0.25   
Pd   0.5   0.25   0.25   
Pd   0.5   0.0   0.5   
Pd   0.75   0.25   0.5   
Pd   0.75   0.0   0.75   
Pd   0.5   0.25   0.75   
Pd   0.5   0.5   0.0   
Pd   0.75   0.75   0.0   
Pd   0.75   0.5   0.25   
Pd   0.5   0.75   0.25   
Pd   0.5   0.5   0.5   
Pd   0.75   0.75   0.5   
Pd   0.75   0.5   0.75   
Pd   0.5   0.75   0.75   
K_POINTS automatic
9 9 9 1 1 1  
CELL_PARAMETERS alat
1.0 0.0 0.0 
0.0 1.0 0.0 
0.0 0.0 1.0